
Gurobi 8.1.1 (win64) logging started 11/28/19 08:00:49

Changed value of parameter LogFile to logs/drand/rlt/drand-05-110-2.log
   Prev: gurobi.log  Default: 
Changed value of parameter LogToConsole to 0
   Prev: 1  Min: 0  Max: 1  Default: 1
Changed value of parameter TimeLimit to 3600.0
   Prev: 1e+100  Min: 0.0  Max: 1e+100  Default: 1e+100
Optimize a model with 214898 rows, 72010 columns and 502934 nonzeros
Variable types: 0 continuous, 72010 integer (379 binary)
Coefficient statistics:
  Matrix range     [1e+00, 1e+00]
  Objective range  [1e+00, 1e+00]
  Bounds range     [1e+00, 1e+00]
  RHS range        [1e+00, 1e+00]
Found heuristic solution: objective 6.0000000
Presolve time: 2.72s
Presolved: 214898 rows, 72010 columns, 502934 nonzeros
Variable types: 0 continuous, 72010 integer (72010 binary)

Root simplex log...

Iteration    Objective       Primal Inf.    Dual Inf.      Time
    2033    1.3333345e+00   3.380952e+00   0.000000e+00      5s
    2783    1.3459474e+00   2.737838e+00   0.000000e+00     11s
    3155    1.3481481e+00   0.000000e+00   0.000000e+00     13s

Root relaxation: objective 1.348148e+00, 3155 iterations, 9.63 seconds

    Nodes    |    Current Node    |     Objective Bounds      |     Work
 Expl Unexpl |  Obj  Depth IntInf | Incumbent    BestBd   Gap | It/Node Time

     0     0    1.34815    0 1739    6.00000    1.34815  77.5%     -   19s
     0     0    1.52849    0 1403    6.00000    1.52849  74.5%     -   40s
     0     0    1.62443    0 1554    6.00000    1.62443  72.9%     -   85s
     0     0    1.62569    0 1445    6.00000    1.62569  72.9%     -   97s
     0     0    1.67919    0 1687    6.00000    1.67919  72.0%     -  106s
     0     0    1.70020    0 1567    6.00000    1.70020  71.7%     -  162s
     0     0    1.76522    0 1790    6.00000    1.76522  70.6%     -  173s
     0     0    1.76783    0 1742    6.00000    1.76783  70.5%     -  195s
     0     0    1.78845    0 1536    6.00000    1.78845  70.2%     -  206s
     0     0    1.79149    0 1539    6.00000    1.79149  70.1%     -  225s
     0     0    1.80788    0 1493    6.00000    1.80788  69.9%     -  234s
     0     0    1.81065    0 1441    6.00000    1.81065  69.8%     -  257s
     0     0    1.82254    0 1455    6.00000    1.82254  69.6%     -  266s
     0     0    1.82311    0 1454    6.00000    1.82311  69.6%     -  304s
     0     0    1.83298    0 1304    6.00000    1.83298  69.5%     -  315s
     0     0    1.83342    0 1301    6.00000    1.83342  69.4%     -  438s
     0     0    1.84086    0 1307    6.00000    1.84086  69.3%     -  448s
     0     0    1.84104    0 1303    6.00000    1.84104  69.3%     -  454s
     0     0    1.84801    0 1296    6.00000    1.84801  69.2%     -  463s
     0     0    1.84806    0 1251    6.00000    1.84806  69.2%     -  473s
     0     0    1.85297    0 1133    6.00000    1.85297  69.1%     -  480s
     0     0    1.85334    0 1139    6.00000    1.85334  69.1%     -  485s
     0     0    1.85613    0 1185    6.00000    1.85613  69.1%     -  492s
     0     0    1.85622    0 1209    6.00000    1.85622  69.1%     -  497s
     0     0    1.85887    0 1295    6.00000    1.85887  69.0%     -  506s
     0     0    1.85894    0 1299    6.00000    1.85894  69.0%     -  636s
     0     0    1.86156    0 1408    6.00000    1.86156  69.0%     -  646s
     0     0    1.86453    0 1425    6.00000    1.86453  68.9%     -  675s
     0     0    1.86688    0 1412    6.00000    1.86688  68.9%     -  687s
     0     0    1.86713    0 1358    6.00000    1.86713  68.9%     -  692s
     0     0    1.86904    0 1391    6.00000    1.86904  68.8%     -  703s
     0     0    1.87078    0 1310    6.00000    1.87078  68.8%     -  715s
     0     0    1.87084    0 1227    6.00000    1.87084  68.8%     -  860s
     0     0    1.87175    0 1370    6.00000    1.87175  68.8%     -  870s
     0     0    1.87181    0 1362    6.00000    1.87181  68.8%     -  888s
     0     0    1.87300    0 1286    6.00000    1.87300  68.8%     -  900s
     0     0    1.87300    0 1274    6.00000    1.87300  68.8%     -  903s
     0     0    1.87412    0 1353    6.00000    1.87412  68.8%     -  914s
     0     0    1.87417    0 1359    6.00000    1.87417  68.8%     -  919s
     0     0    1.87506    0 1284    6.00000    1.87506  68.7%     -  929s
     0     0    1.87509    0 1275    6.00000    1.87509  68.7%     -  934s
     0     0    1.87598    0 1323    6.00000    1.87598  68.7%     -  946s
     0     0    1.87681    0 1312    6.00000    1.87681  68.7%     - 1094s
     0     0    1.87690    0 1319    6.00000    1.87690  68.7%     - 1112s
     0     0    1.87778    0 1224    6.00000    1.87778  68.7%     - 1125s
     0     0    1.87780    0 1257    6.00000    1.87780  68.7%     - 1135s
     0     0    1.87856    0 1372    6.00000    1.87856  68.7%     - 1148s
     0     0    1.87857    0 1353    6.00000    1.87857  68.7%     - 1161s
     0     0    1.87945    0 1376    6.00000    1.87945  68.7%     - 1176s
     0     0    1.87945    0 1376    6.00000    1.87945  68.7%     - 1177s
     0     0    1.87945    0 1376    6.00000    1.87945  68.7%     - 3600s

Cutting planes:
  MIR: 2
  Zero half: 109

Explored 1 nodes (76073 simplex iterations) in 3600.05 seconds
Thread count was 4 (of 4 available processors)

Solution count 1: 6 

Time limit reached
Best objective 6.000000000000e+00, best bound 2.000000000000e+00, gap 66.6667%
